%BLOCK LATTICE_CART
          13.5025285          13.5025285                -0.0
          13.5025285                -0.0          13.5025285
                 0.0           2.7005057           2.7005057
%ENDBLOCK LATTICE_CART

%BLOCK POSITIONS_FRAC
Si                  0.0                 0.0                 0.0                 
Si                  0.05                0.05                0.25                
Si                  0.0                 0.2                 0.0                 
Si                  0.05                0.25                0.25                
Si                  0.0                 0.4                 0.0                 
Si                  0.05                0.45                0.25                
Si                  0.0                 0.6                 0.0                 
Si                  0.05                0.65                0.25                
Si                  0.0                 0.8                 0.0                 
Si                  0.05                0.8500000000000001  0.25                
Si                  0.2                 0.0                 0.0                 
Si                  0.25                0.05                0.25                
Si                  0.2                 0.2                 0.0                 
Si                  0.25                0.25                0.25                
Si                  0.2                 0.4                 0.0                 
Si                  0.25                0.45                0.25                
Si                  0.2                 0.6                 0.0                 
Si                  0.25                0.65                0.25                
Si                  0.2                 0.8                 0.0                 
Si                  0.25                0.8500000000000001  0.25                
Si                  0.4                 0.0                 0.0                 
Si                  0.45                0.05                0.25                
Si                  0.4                 0.2                 0.0                 
Si                  0.45                0.25                0.25                
Si                  0.4                 0.4                 0.0                 
Si                  0.45                0.45                0.25                
Si                  0.4                 0.6                 0.0                 
Si                  0.45                0.65                0.25                
Si                  0.4                 0.8                 0.0                 
Si                  0.45                0.8500000000000001  0.25                
Si                  0.6                 0.0                 0.0                 
Si                  0.65                0.05                0.25                
Si                  0.6                 0.2                 0.0                 
Si                  0.65                0.25                0.25                
Si                  0.6                 0.4                 0.0                 
Si                  0.65                0.45                0.25                
Si                  0.6                 0.6                 0.0                 
Si                  0.65                0.65                0.25                
Si                  0.6                 0.8                 0.0                 
Si                  0.65                0.8500000000000001  0.25                
Si                  0.8                 0.0                 0.0                 
Si                  0.8500000000000001  0.05                0.25                
Si                  0.8                 0.2                 0.0                 
Si                  0.8500000000000001  0.25                0.25                
Si                  0.8                 0.4                 0.0                 
Si                  0.8500000000000001  0.45                0.25                
Si                  0.8                 0.6                 0.0                 
Si                  0.8500000000000001  0.65                0.25                
Si                  0.8                 0.8                 0.0                 
Si                  0.8500000000000001  0.8500000000000001  0.25                
%ENDBLOCK POSITIONS_FRAC

! Silicon primitive unit cell
! optimised with (11 11 11) mp grid, LDA, 400 eV cut off.



fix_all_cell		:	false

symmetry_generate

kpoint_mp_grid 11 11 11