%BLOCK LATTICE_CART
        7.6801695932                 0.0                 0.0
                 0.0             3.88017                 0.0
                 0.0                 0.0           24.503725
%ENDBLOCK LATTICE_CART

%BLOCK POSITIONS_ABS
H                   1.9200423983        -0.040085203585518  -0.0                
H                   5.7601271949        -0.040085203585518  -0.0                
Si                  3.8400847966        3.840084796414482   4.07302499890635    
Si                  3.8400847966        3.840084796414482   9.503724999898521   
Si                  1.9200423983        1.920042398207241   1.3576749996354498  
Si                  1.9200423983        1.920042398207241   6.788375000627623   
Si                  5.7601271949        1.920042398207241   1.3576749996354498  
Si                  5.7601271949        1.920042398207241   6.788375000627623   
Si                  0.0                 3.840084796414482   4.07302499890635    
Si                  0.0                 3.840084796414482   9.503724999898521   
Si                  -0.0                1.920042398207241   2.7153499992708996  
Si                  -0.0                1.920042398207241   8.146050000263072   
Si                  5.7601271949        3.840084796414482   5.430700000992172   
Si                  3.8400847966        1.920042398207241   2.7153499992708996  
Si                  3.8400847966        1.920042398207241   8.146050000263072   
Si                  1.9200423983        3.840084796414482   5.430700000992172   
%ENDBLOCK POSITIONS_ABS



%BLOCK IONIC_CONSTRAINTS
 	1    H   1    1.00000000    0.00000000    0.00000000
       	2    H   1    0.00000000    1.00000000    0.00000000
	3    H   1    0.00000000    0.00000000    1.00000000
 	4    H   2    1.00000000    0.00000000    0.00000000
       	5    H   2    0.00000000    1.00000000    0.00000000
       	6    H   2    0.00000000    0.00000000    1.00000000
  	7   Si   3    1.00000000    0.00000000    0.00000000
      	8   Si   3    0.00000000    1.00000000    0.00000000
       	9   Si   3    0.00000000    0.00000000    1.00000000
        10   Si   5    1.00000000    0.00000000    0.00000000
        11   Si   5    0.00000000    1.00000000    0.00000000
        12   Si   5    0.00000000    0.00000000    1.00000000
%ENDBLOCK IONIC_CONSTRAINTS

fix_com = FALSE
fix_all_cell = TRUE
fix_all_ions = FALSE

symmetry_generate

%block species_pot
Si Si_00.usp
%endblock species_pot

kpoint_mp_grid 2 3 1