%BLOCK LATTICE_CART
  	7.6801695932    0.0000000000    0.0000000000
    	0.0000000000    3.8801700000    0.0000000000
   	0.0000000000    0.0000000000   24.5037250000
%ENDBLOCK LATTICE_CART

%BLOCK POSITIONS_FRAC
    	H    0.7500000000   -0.0103307854   -0.0000000000
    	Si    0.5000000000    0.9896692146    0.1662206460
    	Si    0.5000000000    0.9896692146    0.3878481741
    	Si    0.2500000000    0.4948346073    0.0554068820
    	Si    0.2500000000    0.4948346073    0.2770344101
    	Si    0.7500000000    0.4948346073    0.0554068820
        Si    0.7500000000    0.4948346073    0.2770344101
        Si    0.0000000000    0.9896692146    0.1662206460
        Si    0.0000000000    0.9896692146    0.3878481741
        Si   -0.0000000000    0.4948346073    0.1108137640
        Si   -0.0000000000    0.4948346073    0.3324412921
        Si    0.7500000000    0.9896692146    0.2216275281
        Si    0.5000000000    0.4948346073    0.1108137640
        Si    0.5000000000    0.4948346073    0.3324412921
        Si    0.2500000000    0.9896692146    0.2216275281
   	H    0.2500000000   -0.0103307854   -0.0000000000
%ENDBLOCK POSITIONS_FRAC

%BLOCK IONIC_CONSTRAINTS
 	1    H   1    1.00000000    0.00000000    0.00000000
       	2    H   1    0.00000000    1.00000000    0.00000000
	3    H   1    0.00000000    0.00000000    1.00000000
 	4    H   2    1.00000000    0.00000000    0.00000000
       	5    H   2    0.00000000    1.00000000    0.00000000
       	6    H   2    0.00000000    0.00000000    1.00000000
  	7   Si   3    1.00000000    0.00000000    0.00000000
      	8   Si   3    0.00000000    1.00000000    0.00000000
       	9   Si   3    0.00000000    0.00000000    1.00000000
        10   Si   5    1.00000000    0.00000000    0.00000000
        11   Si   5    0.00000000    1.00000000    0.00000000
        12   Si   5    0.00000000    0.00000000    1.00000000
%ENDBLOCK IONIC_CONSTRAINTS

fix_com = FALSE
fix_all_cell = TRUE
fix_all_ions = FALSE

symmetry_generate

%block species_pot
Si Si_00.usp
%endblock species_pot

kpoint_mp_grid 2 3 1