%BLOCK LATTICE_CART
        7.6801695932                 0.0                 0.0
                 0.0            15.52068                 0.0
                 0.0                 0.0           24.503725
%ENDBLOCK LATTICE_CART

%BLOCK POSITIONS_FRAC
H                                   0.25      -0.00258269635                 0.0
H                                   0.75      -0.00258269635                 0.0
H                                   0.25       0.24741730365                 0.0
H                                   0.75       0.24741730365                 0.0
H                                   0.25       0.49741730365                 0.0
H                                   0.75       0.49741730365                 0.0
H                                   0.25       0.74741730365                 0.0
H                                   0.75       0.74741730365                 0.0
Si                                  0.25      0.123708651825         0.055406882
Si                                  0.75      0.123708651825         0.055406882
Si                                  0.25      0.373708651825         0.055406882
Si                                  0.75      0.373708651825         0.055406882
Si                                  0.25      0.623708651825         0.055406882
Si                                  0.75      0.623708651825         0.055406882
Si                                  0.25      0.873708651825         0.055406882
Si                                  0.75      0.873708651825         0.055406882
Si                                   0.0      0.123708651825         0.110813764
Si                                   0.5      0.123708651825         0.110813764
Si                                   0.0      0.373708651825         0.110813764
Si                                   0.5      0.373708651825         0.110813764
Si                                   0.0      0.623708651825         0.110813764
Si                                   0.5      0.623708651825         0.110813764
Si                                   0.0      0.873708651825         0.110813764
Si                                   0.5      0.873708651825         0.110813764
Si                                   0.0       0.24741730365         0.166220646
Si                                   0.5       0.24741730365         0.166220646
Si                                   0.0 0.49741730365000003         0.166220646
Si                                   0.5 0.49741730365000003         0.166220646
Si                                   0.0       0.74741730365         0.166220646
Si                                   0.5       0.74741730365         0.166220646
Si                                   0.0       0.99741730365         0.166220646
Si                                   0.5       0.99741730365         0.166220646
Si                                  0.25       0.24741730365        0.2216275281
Si                                  0.75       0.24741730365        0.2216275281
Si                                  0.25 0.49741730365000003        0.2216275281
Si                                  0.75 0.49741730365000003        0.2216275281
Si                                  0.25       0.74741730365        0.2216275281
Si                                  0.75       0.74741730365        0.2216275281
Si                                  0.25       0.99741730365        0.2216275281
Si                                  0.75       0.99741730365        0.2216275281
Si                                  0.25      0.123708651825        0.2770344101
Si                                  0.75      0.123708651825        0.2770344101
Si                                  0.25      0.373708651825        0.2770344101
Si                                  0.75      0.373708651825        0.2770344101
Si                                  0.25      0.623708651825        0.2770344101
Si                                  0.75      0.623708651825        0.2770344101
Si                                  0.25      0.873708651825        0.2770344101
Si                                  0.75      0.873708651825        0.2770344101
Si                                   0.0      0.123708651825        0.3324412921
Si                                   0.5      0.123708651825        0.3324412921
Si                                   0.0      0.373708651825        0.3324412921
Si                                   0.5      0.373708651825        0.3324412921
Si                                   0.0      0.623708651825        0.3324412921
Si                                   0.5      0.623708651825        0.3324412921
Si                                   0.0      0.873708651825        0.3324412921
Si                                   0.5      0.873708651825        0.3324412921
Si                                   0.0       0.24741730365        0.3878481741
Si                                   0.5       0.24741730365        0.3878481741
Si                                   0.0 0.49741730365000003        0.3878481741
Si                                   0.5 0.49741730365000003        0.3878481741
Si                                   0.0       0.74741730365        0.3878481741
Si                                   0.5       0.74741730365        0.3878481741
Si                                   0.0       0.99741730365        0.3878481741
Si                                   0.5       0.99741730365        0.3878481741
%ENDBLOCK POSITIONS_FRAC





%BLOCK IONIC_CONSTRAINTS
 	1    H   1    1.00000000    0.00000000    0.00000000
       	2    H   1    0.00000000    1.00000000    0.00000000
	3    H   1    0.00000000    0.00000000    1.00000000
 	4    H   2    1.00000000    0.00000000    0.00000000
       	5    H   2    0.00000000    1.00000000    0.00000000
       	6    H   2    0.00000000    0.00000000    1.00000000
 	7    H   3    1.00000000    0.00000000    0.00000000
       	8    H   3    0.00000000    1.00000000    0.00000000
	9    H   3    0.00000000    0.00000000    1.00000000
 	10    H   4    1.00000000    0.00000000    0.00000000
       	11    H   4    0.00000000    1.00000000    0.00000000
	12   H   4    0.00000000    0.00000000    1.00000000
 	13    H  5    1.00000000    0.00000000    0.00000000
       	14   H  5    0.00000000    1.00000000    0.00000000
	15    H   5    0.00000000    0.00000000    1.00000000
 	16    H  6    1.00000000    0.00000000    0.00000000
       	17   H   6    0.00000000    1.00000000    0.00000000
	18    H   6    0.00000000    0.00000000    1.00000000
 	19    H   7    1.00000000    0.00000000    0.00000000
       	20    H   7    0.00000000    1.00000000    0.00000000
	21    H   7    0.00000000    0.00000000    1.00000000
 	22    H  8    1.00000000    0.00000000    0.00000000
       	23    H   8    0.00000000    1.00000000    0.00000000
	24   H   9    0.00000000    0.00000000    1.00000000
 	25    Si   1    1.00000000    0.00000000    0.00000000
       	26    Si   1    0.00000000    1.00000000    0.00000000
	27    Si   1    0.00000000    0.00000000    1.00000000
 	28    Si   2    1.00000000    0.00000000    0.00000000
       	29    Si   2    0.00000000    1.00000000    0.00000000
       	30    Si   2    0.00000000    0.00000000    1.00000000
 	31    Si   3    1.00000000    0.00000000    0.00000000
       	32    Si   3    0.00000000    1.00000000    0.00000000
	33    Si   3    0.00000000    0.00000000    1.00000000
 	34    Si   4    1.00000000    0.00000000    0.00000000
       	35    Si   4    0.00000000    1.00000000    0.00000000
	36   Si   4    0.00000000    0.00000000    1.00000000
 	37    Si  5    1.00000000    0.00000000    0.00000000
       	38   Si  5    0.00000000    1.00000000    0.00000000
	39    Si   5    0.00000000    0.00000000    1.00000000
 	40    Si 6    1.00000000    0.00000000    0.00000000
       	41   Si   6    0.00000000    1.00000000    0.00000000
	42    Si   6    0.00000000    0.00000000    1.00000000
 	43    Si  7    1.00000000    0.00000000    0.00000000
       	44    Si   7    0.00000000    1.00000000    0.00000000
	45    Si  7    0.00000000    0.00000000    1.00000000
 	46    Si  8    1.00000000    0.00000000    0.00000000
       	47    Si   8    0.00000000    1.00000000    0.00000000
	48   Si   9    0.00000000    0.00000000    1.00000000
%ENDBLOCK IONIC_CONSTRAINTS

fix_com = FALSE
fix_all_cell = TRUE
fix_all_ions = FALSE

symmetry_generate

%block species_pot
Si Si_00.usp
%endblock species_pot

kpoint_mp_grid 2 3 1